ITEM = 1..17;
capacity1 = 201;
capacity2 = 207;
capacity3 = 207;
profits = [549, 847, 968, 209, 917, 486, 975, 753, 14, 501, 951, 357, 953, 550, 190, 594, 267];
weights = [18, 84, 77, 94, 34, 91, 56, 92, 47, 26, 55, 89, 97, 50, 19, 28, 100];
